c n orig vars 112
p cnf 431 1326
113 -1 0
113 -2 0
-113 1 2 0
114 -3 0
114 -4 0
-114 3 4 0
115 -5 0
115 -6 0
-115 5 6 0
116 -7 0
116 -8 0
-116 7 8 0
117 -9 0
117 -10 0
-117 9 10 0
118 -11 0
118 -12 0
-118 11 12 0
119 -13 0
119 -14 0
-119 13 14 0
120 -15 0
120 -16 0
-120 15 16 0
121 -17 0
121 -18 0
-121 17 18 0
122 -19 0
122 -20 0
-122 19 20 0
123 -21 0
123 -22 0
-123 21 22 0
124 -23 0
124 -24 0
-124 23 24 0
125 -25 0
125 -26 0
-125 25 26 0
126 -27 0
126 -28 0
-126 27 28 0
127 -29 0
127 -30 0
-127 29 30 0
128 -31 0
128 -32 0
-128 31 32 0
129 -33 0
129 -34 0
-129 33 34 0
130 -35 0
130 -36 0
-130 35 36 0
131 -37 0
131 -38 0
-131 37 38 0
132 -39 0
132 -40 0
-132 39 40 0
-133 113 0
-133 114 0
-133 115 0
-133 116 0
-133 117 0
-133 118 0
-133 119 0
-133 120 0
-133 121 0
-133 122 0
-133 123 0
-133 124 0
-133 125 0
-133 126 0
-133 127 0
-133 128 0
-133 129 0
-133 130 0
-133 131 0
-133 132 0
133 -113 -114 -115 -116 -117 -118 -119 -120 -121 -122 -123 -124 -125 -126 -127 -128 -129 -130 -131 -132 0
-133 0
134 -41 0
134 -50 0
134 -59 0
134 -68 0
134 -77 0
134 -86 0
134 -95 0
134 -104 0
-134 41 50 59 68 77 86 95 104 0
135 -42 0
135 -51 0
135 -60 0
135 -69 0
135 -78 0
135 -87 0
135 -96 0
135 -105 0
-135 42 51 60 69 78 87 96 105 0
136 -43 0
136 -52 0
136 -61 0
136 -70 0
136 -79 0
136 -88 0
136 -97 0
136 -106 0
-136 43 52 61 70 79 88 97 106 0
137 -44 0
137 -53 0
137 -62 0
137 -71 0
137 -80 0
137 -89 0
137 -98 0
137 -107 0
-137 44 53 62 71 80 89 98 107 0
138 -45 0
138 -54 0
138 -63 0
138 -72 0
138 -81 0
138 -90 0
138 -99 0
138 -108 0
-138 45 54 63 72 81 90 99 108 0
139 -46 0
139 -55 0
139 -64 0
139 -73 0
139 -82 0
139 -91 0
139 -100 0
139 -109 0
-139 46 55 64 73 82 91 100 109 0
140 -47 0
140 -56 0
140 -65 0
140 -74 0
140 -83 0
140 -92 0
140 -101 0
140 -110 0
-140 47 56 65 74 83 92 101 110 0
141 -48 0
141 -57 0
141 -66 0
141 -75 0
141 -84 0
141 -93 0
141 -102 0
141 -111 0
-141 48 57 66 75 84 93 102 111 0
142 -49 0
142 -58 0
142 -67 0
142 -76 0
142 -85 0
142 -94 0
142 -103 0
142 -112 0
-142 49 58 67 76 85 94 103 112 0
143 41 0
143 42 0
-143 -41 -42 0
144 41 0
144 43 0
-144 -41 -43 0
145 41 0
145 44 0
-145 -41 -44 0
146 41 0
146 45 0
-146 -41 -45 0
147 41 0
147 46 0
-147 -41 -46 0
148 41 0
148 47 0
-148 -41 -47 0
149 41 0
149 48 0
-149 -41 -48 0
150 41 0
150 49 0
-150 -41 -49 0
151 42 0
151 43 0
-151 -42 -43 0
152 42 0
152 44 0
-152 -42 -44 0
153 42 0
153 45 0
-153 -42 -45 0
154 42 0
154 46 0
-154 -42 -46 0
155 42 0
155 47 0
-155 -42 -47 0
156 42 0
156 48 0
-156 -42 -48 0
157 42 0
157 49 0
-157 -42 -49 0
158 43 0
158 44 0
-158 -43 -44 0
159 43 0
159 45 0
-159 -43 -45 0
160 43 0
160 46 0
-160 -43 -46 0
161 43 0
161 47 0
-161 -43 -47 0
162 43 0
162 48 0
-162 -43 -48 0
163 43 0
163 49 0
-163 -43 -49 0
164 44 0
164 45 0
-164 -44 -45 0
165 44 0
165 46 0
-165 -44 -46 0
166 44 0
166 47 0
-166 -44 -47 0
167 44 0
167 48 0
-167 -44 -48 0
168 44 0
168 49 0
-168 -44 -49 0
169 45 0
169 46 0
-169 -45 -46 0
170 45 0
170 47 0
-170 -45 -47 0
171 45 0
171 48 0
-171 -45 -48 0
172 45 0
172 49 0
-172 -45 -49 0
173 46 0
173 47 0
-173 -46 -47 0
174 46 0
174 48 0
-174 -46 -48 0
175 46 0
175 49 0
-175 -46 -49 0
176 47 0
176 48 0
-176 -47 -48 0
177 47 0
177 49 0
-177 -47 -49 0
178 48 0
178 49 0
-178 -48 -49 0
179 50 0
179 51 0
-179 -50 -51 0
180 50 0
180 52 0
-180 -50 -52 0
181 50 0
181 53 0
-181 -50 -53 0
182 50 0
182 54 0
-182 -50 -54 0
183 50 0
183 55 0
-183 -50 -55 0
184 50 0
184 56 0
-184 -50 -56 0
185 50 0
185 57 0
-185 -50 -57 0
186 50 0
186 58 0
-186 -50 -58 0
187 51 0
187 52 0
-187 -51 -52 0
188 51 0
188 53 0
-188 -51 -53 0
189 51 0
189 54 0
-189 -51 -54 0
190 51 0
190 55 0
-190 -51 -55 0
191 51 0
191 56 0
-191 -51 -56 0
192 51 0
192 57 0
-192 -51 -57 0
193 51 0
193 58 0
-193 -51 -58 0
194 52 0
194 53 0
-194 -52 -53 0
195 52 0
195 54 0
-195 -52 -54 0
196 52 0
196 55 0
-196 -52 -55 0
197 52 0
197 56 0
-197 -52 -56 0
198 52 0
198 57 0
-198 -52 -57 0
199 52 0
199 58 0
-199 -52 -58 0
200 53 0
200 54 0
-200 -53 -54 0
201 53 0
201 55 0
-201 -53 -55 0
202 53 0
202 56 0
-202 -53 -56 0
203 53 0
203 57 0
-203 -53 -57 0
204 53 0
204 58 0
-204 -53 -58 0
205 54 0
205 55 0
-205 -54 -55 0
206 54 0
206 56 0
-206 -54 -56 0
207 54 0
207 57 0
-207 -54 -57 0
208 54 0
208 58 0
-208 -54 -58 0
209 55 0
209 56 0
-209 -55 -56 0
210 55 0
210 57 0
-210 -55 -57 0
211 55 0
211 58 0
-211 -55 -58 0
212 56 0
212 57 0
-212 -56 -57 0
213 56 0
213 58 0
-213 -56 -58 0
214 57 0
214 58 0
-214 -57 -58 0
215 59 0
215 60 0
-215 -59 -60 0
216 59 0
216 61 0
-216 -59 -61 0
217 59 0
217 62 0
-217 -59 -62 0
218 59 0
218 63 0
-218 -59 -63 0
219 59 0
219 64 0
-219 -59 -64 0
220 59 0
220 65 0
-220 -59 -65 0
221 59 0
221 66 0
-221 -59 -66 0
222 59 0
222 67 0
-222 -59 -67 0
223 60 0
223 61 0
-223 -60 -61 0
224 60 0
224 62 0
-224 -60 -62 0
225 60 0
225 63 0
-225 -60 -63 0
226 60 0
226 64 0
-226 -60 -64 0
227 60 0
227 65 0
-227 -60 -65 0
228 60 0
228 66 0
-228 -60 -66 0
229 60 0
229 67 0
-229 -60 -67 0
230 61 0
230 62 0
-230 -61 -62 0
231 61 0
231 63 0
-231 -61 -63 0
232 61 0
232 64 0
-232 -61 -64 0
233 61 0
233 65 0
-233 -61 -65 0
234 61 0
234 66 0
-234 -61 -66 0
235 61 0
235 67 0
-235 -61 -67 0
236 62 0
236 63 0
-236 -62 -63 0
237 62 0
237 64 0
-237 -62 -64 0
238 62 0
238 65 0
-238 -62 -65 0
239 62 0
239 66 0
-239 -62 -66 0
240 62 0
240 67 0
-240 -62 -67 0
241 63 0
241 64 0
-241 -63 -64 0
242 63 0
242 65 0
-242 -63 -65 0
243 63 0
243 66 0
-243 -63 -66 0
244 63 0
244 67 0
-244 -63 -67 0
245 64 0
245 65 0
-245 -64 -65 0
246 64 0
246 66 0
-246 -64 -66 0
247 64 0
247 67 0
-247 -64 -67 0
248 65 0
248 66 0
-248 -65 -66 0
249 65 0
249 67 0
-249 -65 -67 0
250 66 0
250 67 0
-250 -66 -67 0
251 68 0
251 69 0
-251 -68 -69 0
252 68 0
252 70 0
-252 -68 -70 0
253 68 0
253 71 0
-253 -68 -71 0
254 68 0
254 72 0
-254 -68 -72 0
255 68 0
255 73 0
-255 -68 -73 0
256 68 0
256 74 0
-256 -68 -74 0
257 68 0
257 75 0
-257 -68 -75 0
258 68 0
258 76 0
-258 -68 -76 0
259 69 0
259 70 0
-259 -69 -70 0
260 69 0
260 71 0
-260 -69 -71 0
261 69 0
261 72 0
-261 -69 -72 0
262 69 0
262 73 0
-262 -69 -73 0
263 69 0
263 74 0
-263 -69 -74 0
264 69 0
264 75 0
-264 -69 -75 0
265 69 0
265 76 0
-265 -69 -76 0
266 70 0
266 71 0
-266 -70 -71 0
267 70 0
267 72 0
-267 -70 -72 0
268 70 0
268 73 0
-268 -70 -73 0
269 70 0
269 74 0
-269 -70 -74 0
270 70 0
270 75 0
-270 -70 -75 0
271 70 0
271 76 0
-271 -70 -76 0
272 71 0
272 72 0
-272 -71 -72 0
273 71 0
273 73 0
-273 -71 -73 0
274 71 0
274 74 0
-274 -71 -74 0
275 71 0
275 75 0
-275 -71 -75 0
276 71 0
276 76 0
-276 -71 -76 0
277 72 0
277 73 0
-277 -72 -73 0
278 72 0
278 74 0
-278 -72 -74 0
279 72 0
279 75 0
-279 -72 -75 0
280 72 0
280 76 0
-280 -72 -76 0
281 73 0
281 74 0
-281 -73 -74 0
282 73 0
282 75 0
-282 -73 -75 0
283 73 0
283 76 0
-283 -73 -76 0
284 74 0
284 75 0
-284 -74 -75 0
285 74 0
285 76 0
-285 -74 -76 0
286 75 0
286 76 0
-286 -75 -76 0
287 77 0
287 78 0
-287 -77 -78 0
288 77 0
288 79 0
-288 -77 -79 0
289 77 0
289 80 0
-289 -77 -80 0
290 77 0
290 81 0
-290 -77 -81 0
291 77 0
291 82 0
-291 -77 -82 0
292 77 0
292 83 0
-292 -77 -83 0
293 77 0
293 84 0
-293 -77 -84 0
294 77 0
294 85 0
-294 -77 -85 0
295 78 0
295 79 0
-295 -78 -79 0
296 78 0
296 80 0
-296 -78 -80 0
297 78 0
297 81 0
-297 -78 -81 0
298 78 0
298 82 0
-298 -78 -82 0
299 78 0
299 83 0
-299 -78 -83 0
300 78 0
300 84 0
-300 -78 -84 0
301 78 0
301 85 0
-301 -78 -85 0
302 79 0
302 80 0
-302 -79 -80 0
303 79 0
303 81 0
-303 -79 -81 0
304 79 0
304 82 0
-304 -79 -82 0
305 79 0
305 83 0
-305 -79 -83 0
306 79 0
306 84 0
-306 -79 -84 0
307 79 0
307 85 0
-307 -79 -85 0
308 80 0
308 81 0
-308 -80 -81 0
309 80 0
309 82 0
-309 -80 -82 0
310 80 0
310 83 0
-310 -80 -83 0
311 80 0
311 84 0
-311 -80 -84 0
312 80 0
312 85 0
-312 -80 -85 0
313 81 0
313 82 0
-313 -81 -82 0
314 81 0
314 83 0
-314 -81 -83 0
315 81 0
315 84 0
-315 -81 -84 0
316 81 0
316 85 0
-316 -81 -85 0
317 82 0
317 83 0
-317 -82 -83 0
318 82 0
318 84 0
-318 -82 -84 0
319 82 0
319 85 0
-319 -82 -85 0
320 83 0
320 84 0
-320 -83 -84 0
321 83 0
321 85 0
-321 -83 -85 0
322 84 0
322 85 0
-322 -84 -85 0
323 86 0
323 87 0
-323 -86 -87 0
324 86 0
324 88 0
-324 -86 -88 0
325 86 0
325 89 0
-325 -86 -89 0
326 86 0
326 90 0
-326 -86 -90 0
327 86 0
327 91 0
-327 -86 -91 0
328 86 0
328 92 0
-328 -86 -92 0
329 86 0
329 93 0
-329 -86 -93 0
330 86 0
330 94 0
-330 -86 -94 0
331 87 0
331 88 0
-331 -87 -88 0
332 87 0
332 89 0
-332 -87 -89 0
333 87 0
333 90 0
-333 -87 -90 0
334 87 0
334 91 0
-334 -87 -91 0
335 87 0
335 92 0
-335 -87 -92 0
336 87 0
336 93 0
-336 -87 -93 0
337 87 0
337 94 0
-337 -87 -94 0
338 88 0
338 89 0
-338 -88 -89 0
339 88 0
339 90 0
-339 -88 -90 0
340 88 0
340 91 0
-340 -88 -91 0
341 88 0
341 92 0
-341 -88 -92 0
342 88 0
342 93 0
-342 -88 -93 0
343 88 0
343 94 0
-343 -88 -94 0
344 89 0
344 90 0
-344 -89 -90 0
345 89 0
345 91 0
-345 -89 -91 0
346 89 0
346 92 0
-346 -89 -92 0
347 89 0
347 93 0
-347 -89 -93 0
348 89 0
348 94 0
-348 -89 -94 0
349 90 0
349 91 0
-349 -90 -91 0
350 90 0
350 92 0
-350 -90 -92 0
351 90 0
351 93 0
-351 -90 -93 0
352 90 0
352 94 0
-352 -90 -94 0
353 91 0
353 92 0
-353 -91 -92 0
354 91 0
354 93 0
-354 -91 -93 0
355 91 0
355 94 0
-355 -91 -94 0
356 92 0
356 93 0
-356 -92 -93 0
357 92 0
357 94 0
-357 -92 -94 0
358 93 0
358 94 0
-358 -93 -94 0
359 95 0
359 96 0
-359 -95 -96 0
360 95 0
360 97 0
-360 -95 -97 0
361 95 0
361 98 0
-361 -95 -98 0
362 95 0
362 99 0
-362 -95 -99 0
363 95 0
363 100 0
-363 -95 -100 0
364 95 0
364 101 0
-364 -95 -101 0
365 95 0
365 102 0
-365 -95 -102 0
366 95 0
366 103 0
-366 -95 -103 0
367 96 0
367 97 0
-367 -96 -97 0
368 96 0
368 98 0
-368 -96 -98 0
369 96 0
369 99 0
-369 -96 -99 0
370 96 0
370 100 0
-370 -96 -100 0
371 96 0
371 101 0
-371 -96 -101 0
372 96 0
372 102 0
-372 -96 -102 0
373 96 0
373 103 0
-373 -96 -103 0
374 97 0
374 98 0
-374 -97 -98 0
375 97 0
375 99 0
-375 -97 -99 0
376 97 0
376 100 0
-376 -97 -100 0
377 97 0
377 101 0
-377 -97 -101 0
378 97 0
378 102 0
-378 -97 -102 0
379 97 0
379 103 0
-379 -97 -103 0
380 98 0
380 99 0
-380 -98 -99 0
381 98 0
381 100 0
-381 -98 -100 0
382 98 0
382 101 0
-382 -98 -101 0
383 98 0
383 102 0
-383 -98 -102 0
384 98 0
384 103 0
-384 -98 -103 0
385 99 0
385 100 0
-385 -99 -100 0
386 99 0
386 101 0
-386 -99 -101 0
387 99 0
387 102 0
-387 -99 -102 0
388 99 0
388 103 0
-388 -99 -103 0
389 100 0
389 101 0
-389 -100 -101 0
390 100 0
390 102 0
-390 -100 -102 0
391 100 0
391 103 0
-391 -100 -103 0
392 101 0
392 102 0
-392 -101 -102 0
393 101 0
393 103 0
-393 -101 -103 0
394 102 0
394 103 0
-394 -102 -103 0
395 104 0
395 105 0
-395 -104 -105 0
396 104 0
396 106 0
-396 -104 -106 0
397 104 0
397 107 0
-397 -104 -107 0
398 104 0
398 108 0
-398 -104 -108 0
399 104 0
399 109 0
-399 -104 -109 0
400 104 0
400 110 0
-400 -104 -110 0
401 104 0
401 111 0
-401 -104 -111 0
402 104 0
402 112 0
-402 -104 -112 0
403 105 0
403 106 0
-403 -105 -106 0
404 105 0
404 107 0
-404 -105 -107 0
405 105 0
405 108 0
-405 -105 -108 0
406 105 0
406 109 0
-406 -105 -109 0
407 105 0
407 110 0
-407 -105 -110 0
408 105 0
408 111 0
-408 -105 -111 0
409 105 0
409 112 0
-409 -105 -112 0
410 106 0
410 107 0
-410 -106 -107 0
411 106 0
411 108 0
-411 -106 -108 0
412 106 0
412 109 0
-412 -106 -109 0
413 106 0
413 110 0
-413 -106 -110 0
414 106 0
414 111 0
-414 -106 -111 0
415 106 0
415 112 0
-415 -106 -112 0
416 107 0
416 108 0
-416 -107 -108 0
417 107 0
417 109 0
-417 -107 -109 0
418 107 0
418 110 0
-418 -107 -110 0
419 107 0
419 111 0
-419 -107 -111 0
420 107 0
420 112 0
-420 -107 -112 0
421 108 0
421 109 0
-421 -108 -109 0
422 108 0
422 110 0
-422 -108 -110 0
423 108 0
423 111 0
-423 -108 -111 0
424 108 0
424 112 0
-424 -108 -112 0
425 109 0
425 110 0
-425 -109 -110 0
426 109 0
426 111 0
-426 -109 -111 0
427 109 0
427 112 0
-427 -109 -112 0
428 110 0
428 111 0
-428 -110 -111 0
429 110 0
429 112 0
-429 -110 -112 0
430 111 0
430 112 0
-430 -111 -112 0
-431 134 0
-431 135 0
-431 136 0
-431 137 0
-431 138 0
-431 139 0
-431 140 0
-431 141 0
-431 142 0
-431 143 0
-431 144 0
-431 145 0
-431 146 0
-431 147 0
-431 148 0
-431 149 0
-431 150 0
-431 151 0
-431 152 0
-431 153 0
-431 154 0
-431 155 0
-431 156 0
-431 157 0
-431 158 0
-431 159 0
-431 160 0
-431 161 0
-431 162 0
-431 163 0
-431 164 0
-431 165 0
-431 166 0
-431 167 0
-431 168 0
-431 169 0
-431 170 0
-431 171 0
-431 172 0
-431 173 0
-431 174 0
-431 175 0
-431 176 0
-431 177 0
-431 178 0
-431 179 0
-431 180 0
-431 181 0
-431 182 0
-431 183 0
-431 184 0
-431 185 0
-431 186 0
-431 187 0
-431 188 0
-431 189 0
-431 190 0
-431 191 0
-431 192 0
-431 193 0
-431 194 0
-431 195 0
-431 196 0
-431 197 0
-431 198 0
-431 199 0
-431 200 0
-431 201 0
-431 202 0
-431 203 0
-431 204 0
-431 205 0
-431 206 0
-431 207 0
-431 208 0
-431 209 0
-431 210 0
-431 211 0
-431 212 0
-431 213 0
-431 214 0
-431 215 0
-431 216 0
-431 217 0
-431 218 0
-431 219 0
-431 220 0
-431 221 0
-431 222 0
-431 223 0
-431 224 0
-431 225 0
-431 226 0
-431 227 0
-431 228 0
-431 229 0
-431 230 0
-431 231 0
-431 232 0
-431 233 0
-431 234 0
-431 235 0
-431 236 0
-431 237 0
-431 238 0
-431 239 0
-431 240 0
-431 241 0
-431 242 0
-431 243 0
-431 244 0
-431 245 0
-431 246 0
-431 247 0
-431 248 0
-431 249 0
-431 250 0
-431 251 0
-431 252 0
-431 253 0
-431 254 0
-431 255 0
-431 256 0
-431 257 0
-431 258 0
-431 259 0
-431 260 0
-431 261 0
-431 262 0
-431 263 0
-431 264 0
-431 265 0
-431 266 0
-431 267 0
-431 268 0
-431 269 0
-431 270 0
-431 271 0
-431 272 0
-431 273 0
-431 274 0
-431 275 0
-431 276 0
-431 277 0
-431 278 0
-431 279 0
-431 280 0
-431 281 0
-431 282 0
-431 283 0
-431 284 0
-431 285 0
-431 286 0
-431 287 0
-431 288 0
-431 289 0
-431 290 0
-431 291 0
-431 292 0
-431 293 0
-431 294 0
-431 295 0
-431 296 0
-431 297 0
-431 298 0
-431 299 0
-431 300 0
-431 301 0
-431 302 0
-431 303 0
-431 304 0
-431 305 0
-431 306 0
-431 307 0
-431 308 0
-431 309 0
-431 310 0
-431 311 0
-431 312 0
-431 313 0
-431 314 0
-431 315 0
-431 316 0
-431 317 0
-431 318 0
-431 319 0
-431 320 0
-431 321 0
-431 322 0
-431 323 0
-431 324 0
-431 325 0
-431 326 0
-431 327 0
-431 328 0
-431 329 0
-431 330 0
-431 331 0
-431 332 0
-431 333 0
-431 334 0
-431 335 0
-431 336 0
-431 337 0
-431 338 0
-431 339 0
-431 340 0
-431 341 0
-431 342 0
-431 343 0
-431 344 0
-431 345 0
-431 346 0
-431 347 0
-431 348 0
-431 349 0
-431 350 0
-431 351 0
-431 352 0
-431 353 0
-431 354 0
-431 355 0
-431 356 0
-431 357 0
-431 358 0
-431 359 0
-431 360 0
-431 361 0
-431 362 0
-431 363 0
-431 364 0
-431 365 0
-431 366 0
-431 367 0
-431 368 0
-431 369 0
-431 370 0
-431 371 0
-431 372 0
-431 373 0
-431 374 0
-431 375 0
-431 376 0
-431 377 0
-431 378 0
-431 379 0
-431 380 0
-431 381 0
-431 382 0
-431 383 0
-431 384 0
-431 385 0
-431 386 0
-431 387 0
-431 388 0
-431 389 0
-431 390 0
-431 391 0
-431 392 0
-431 393 0
-431 394 0
-431 395 0
-431 396 0
-431 397 0
-431 398 0
-431 399 0
-431 400 0
-431 401 0
-431 402 0
-431 403 0
-431 404 0
-431 405 0
-431 406 0
-431 407 0
-431 408 0
-431 409 0
-431 410 0
-431 411 0
-431 412 0
-431 413 0
-431 414 0
-431 415 0
-431 416 0
-431 417 0
-431 418 0
-431 419 0
-431 420 0
-431 421 0
-431 422 0
-431 423 0
-431 424 0
-431 425 0
-431 426 0
-431 427 0
-431 428 0
-431 429 0
-431 430 0
431 -134 -135 -136 -137 -138 -139 -140 -141 -142 -143 -144 -145 -146 -147 -148 -149 -150 -151 -152 -153 -154 -155 -156 -157 -158 -159 -160 -161 -162 -163 -164 -165 -166 -167 -168 -169 -170 -171 -172 -173 -174 -175 -176 -177 -178 -179 -180 -181 -182 -183 -184 -185 -186 -187 -188 -189 -190 -191 -192 -193 -194 -195 -196 -197 -198 -199 -200 -201 -202 -203 -204 -205 -206 -207 -208 -209 -210 -211 -212 -213 -214 -215 -216 -217 -218 -219 -220 -221 -222 -223 -224 -225 -226 -227 -228 -229 -230 -231 -232 -233 -234 -235 -236 -237 -238 -239 -240 -241 -242 -243 -244 -245 -246 -247 -248 -249 -250 -251 -252 -253 -254 -255 -256 -257 -258 -259 -260 -261 -262 -263 -264 -265 -266 -267 -268 -269 -270 -271 -272 -273 -274 -275 -276 -277 -278 -279 -280 -281 -282 -283 -284 -285 -286 -287 -288 -289 -290 -291 -292 -293 -294 -295 -296 -297 -298 -299 -300 -301 -302 -303 -304 -305 -306 -307 -308 -309 -310 -311 -312 -313 -314 -315 -316 -317 -318 -319 -320 -321 -322 -323 -324 -325 -326 -327 -328 -329 -330 -331 -332 -333 -334 -335 -336 -337 -338 -339 -340 -341 -342 -343 -344 -345 -346 -347 -348 -349 -350 -351 -352 -353 -354 -355 -356 -357 -358 -359 -360 -361 -362 -363 -364 -365 -366 -367 -368 -369 -370 -371 -372 -373 -374 -375 -376 -377 -378 -379 -380 -381 -382 -383 -384 -385 -386 -387 -388 -389 -390 -391 -392 -393 -394 -395 -396 -397 -398 -399 -400 -401 -402 -403 -404 -405 -406 -407 -408 -409 -410 -411 -412 -413 -414 -415 -416 -417 -418 -419 -420 -421 -422 -423 -424 -425 -426 -427 -428 -429 -430 0
-431 0
